NAME: st20
TYPE: TSP
COMMENT: 20-city problem (Smith/Thompson)
DIMENSION: 20
EDGE_WEIGHT_TYPE : EUC_2D
NODE_COORD_SECTION
1.0 160 132
2.0 73 61
3.0 22 98
4.0 188 180
5.0 81 0
6.0 165 194
7.0 10 2
8.0 104 200
9.0 132 97
10.0 136 119
11.0 104 160
12.0 52 67
13.0 45 150
14.0 77 87
15.0 68 186
16.0 143 7
17.0 44 62
18.0 125 25
19.0 29 131
20.0 147 40
EOF

